\ Model Cl_40_Ins_10.lp
\ LP format - for model browsing. Use MPS format to capture full model detail.
Maximize
 
Subject To
 obj1: y[0] = 0
 obj2: y[1] = 0
 obj1_Exp: - y[0] + 93 x[0] + 93 x[1] + 91 x[2] + 91 x[3] + 89 x[4]
   + 87 x[5] + 86 x[6] + 86 x[7] + 84 x[8] + 84 x[9] + 80 x[10] + 74 x[11]
   + 74 x[12] + 73 x[13] + 71 x[14] + 64 x[15] + 64 x[16] + 62 x[17]
   + 60 x[18] + 59 x[19] + 56 x[20] + 55 x[21] + 53 x[22] + 52 x[23]
   + 52 x[24] + 43 x[25] + 40 x[26] + 37 x[27] + 31 x[28] + 28 x[29]
   + 27 x[30] + 27 x[31] + 27 x[32] + 18 x[33] + 17 x[34] + 16 x[35]
   + 14 x[36] + 11 x[37] + 11 x[38] + 3 x[39] = 0
 obj2_Exp: - y[1] + 22 x[0] + 9 x[1] + 45 x[2] + 64 x[3] + 87 x[4]
   + 69 x[5] + 22 x[6] + 62 x[7] + 59 x[8] + 61 x[9] + 83 x[10] + 43 x[11]
   + 31 x[12] + 67 x[13] + 49 x[14] + 98 x[15] + 82 x[16] + 84 x[17]
   + 38 x[18] + 16 x[19] + 8 x[20] + 73 x[21] + 79 x[22] + 23 x[23]
   + 29 x[24] + 81 x[25] + 41 x[26] + 97 x[27] + 93 x[28] + 75 x[29]
   + 95 x[30] + 72 x[31] + 79 x[32] + 12 x[33] + 96 x[34] + 42 x[35]
   + 43 x[36] + 3 x[37] + 75 x[38] + 47 x[39] = 0
 Budget: 103 x[0] + 103 x[1] + 101 x[2] + 101 x[3] + 99 x[4] + 97 x[5]
   + 96 x[6] + 96 x[7] + 94 x[8] + 94 x[9] + 90 x[10] + 84 x[11] + 84 x[12]
   + 83 x[13] + 81 x[14] + 74 x[15] + 74 x[16] + 72 x[17] + 70 x[18]
   + 69 x[19] + 66 x[20] + 65 x[21] + 63 x[22] + 62 x[23] + 62 x[24]
   + 53 x[25] + 50 x[26] + 47 x[27] + 41 x[28] + 38 x[29] + 37 x[30]
   + 37 x[31] + 37 x[32] + 28 x[33] + 27 x[34] + 26 x[35] + 24 x[36]
   + 21 x[37] + 21 x[38] + 13 x[39] <= 1143
Bounds
Binaries
 x[0] x[1] x[2] x[3] x[4] x[5] x[6] x[7] x[8] x[9] x[10] x[11] x[12] x[13]
 x[14] x[15] x[16] x[17] x[18] x[19] x[20] x[21] x[22] x[23] x[24] x[25]
 x[26] x[27] x[28] x[29] x[30] x[31] x[32] x[33] x[34] x[35] x[36] x[37]
 x[38] x[39]
Generals
 y[0] y[1]
End
